c 
c G(n,p) graph
c graph gen seed     : 25262
c number of vertices : 25
c max number of edges: 500
c edge probability   : 0.400000
c data structure     : sparse
c
c           Graph Stats
c number of vertices  : 25
c nonisolated vertices: 25
c number of edges     : 121
c edge density        : 0.403333
c max degree          : 15
c avg degree          : 9.68
c min degree          : 2
p col 25 121
e 1 25
e 1 23
e 1 21
e 1 16
e 1 11
e 1 7
e 1 6
e 1 4
e 2 22
e 2 21
e 2 19
e 2 18
e 2 14
e 2 11
e 2 8
e 2 7
e 2 6
e 2 5
e 3 22
e 3 21
e 3 14
e 3 13
e 3 12
e 3 10
e 3 8
e 3 7
e 3 6
e 3 5
e 3 4
e 4 23
e 4 22
e 4 16
e 4 15
e 4 11
e 4 9
e 4 7
e 5 24
e 5 22
e 5 21
e 5 20
e 5 18
e 5 16
e 5 15
e 5 14
e 5 12
e 5 10
e 5 9
e 5 8
e 5 7
e 6 24
e 6 22
e 6 20
e 6 19
e 6 16
e 6 14
e 6 13
e 6 11
e 6 9
e 6 8
e 7 24
e 7 23
e 7 22
e 7 20
e 7 19
e 7 13
e 7 11
e 7 10
e 7 9
e 8 19
e 8 17
e 8 16
e 8 15
e 8 12
e 8 10
e 9 21
e 9 20
e 9 19
e 9 18
e 9 15
e 9 14
e 9 13
e 9 12
e 10 23
e 10 21
e 10 20
e 10 18
e 10 17
e 10 14
e 10 12
e 11 23
e 11 19
e 11 17
e 11 15
e 11 14
e 11 12
e 12 22
e 12 14
e 13 24
e 13 21
e 13 17
e 14 23
e 14 18
e 14 17
e 15 23
e 15 22
e 15 18
e 16 21
e 16 20
e 16 19
e 16 17
e 17 21
e 18 22
e 18 19
e 19 21
e 20 24
e 20 23
e 20 21
e 21 22
e 22 25
e 22 24
e 22 23
